(declare-rel state (Bool Int Int Int Int Bool Bool Int Int Int Int Int Int Int Bool Bool Bool Int Int Int Int Int Int Int Int Int Int Int Int Int Int Bool Bool Int Int Int Bool Bool Bool))
(declare-var |_OK_| Bool)
(declare-var |_OK_.next| Bool)
(declare-var |a| Int)
(declare-var |a.next| Int)
(declare-var |b| Int)
(declare-var |b.next| Int)
(declare-var |call_First.First| Int)
(declare-var |call_First.First.next| Int)
(declare-var |call_First.flby| Int)
(declare-var |call_First.flby.next| Int)
(declare-var |call_Sofar.Sofar| Bool)
(declare-var |call_Sofar.Sofar.next| Bool)
(declare-var |call_Sofar.flby| Bool)
(declare-var |call_Sofar.flby.next| Bool)
(declare-var |call__PRODUCER_CONSUMMER_.a| Int)
(declare-var |call__PRODUCER_CONSUMMER_.a.next| Int)
(declare-var |call__PRODUCER_CONSUMMER_.b| Int)
(declare-var |call__PRODUCER_CONSUMMER_.b.next| Int)
(declare-var |call__PRODUCER_CONSUMMER_.flby| Int)
(declare-var |call__PRODUCER_CONSUMMER_.flby.next| Int)
(declare-var |call__PRODUCER_CONSUMMER_.flby2| Int)
(declare-var |call__PRODUCER_CONSUMMER_.flby2.next| Int)
(declare-var |call__PRODUCER_CONSUMMER_.flby3| Int)
(declare-var |call__PRODUCER_CONSUMMER_.flby3.next| Int)
(declare-var |call__PRODUCER_CONSUMMER_.flby4| Int)
(declare-var |call__PRODUCER_CONSUMMER_.flby4.next| Int)
(declare-var |call__PRODUCER_CONSUMMER_.flby5| Int)
(declare-var |call__PRODUCER_CONSUMMER_.flby5.next| Int)
(declare-var |call__PRODUCER_CONSUMMER_.garde1| Bool)
(declare-var |call__PRODUCER_CONSUMMER_.garde1.next| Bool)
(declare-var |call__PRODUCER_CONSUMMER_.garde2| Bool)
(declare-var |call__PRODUCER_CONSUMMER_.garde2.next| Bool)
(declare-var |call__PRODUCER_CONSUMMER_.garde3| Bool)
(declare-var |call__PRODUCER_CONSUMMER_.garde3.next| Bool)
(declare-var |call__PRODUCER_CONSUMMER_.i| Int)
(declare-var |call__PRODUCER_CONSUMMER_.i.next| Int)
(declare-var |call__PRODUCER_CONSUMMER_.ite| Int)
(declare-var |call__PRODUCER_CONSUMMER_.ite.next| Int)
(declare-var |call__PRODUCER_CONSUMMER_.ite10| Int)
(declare-var |call__PRODUCER_CONSUMMER_.ite10.next| Int)
(declare-var |call__PRODUCER_CONSUMMER_.ite11| Int)
(declare-var |call__PRODUCER_CONSUMMER_.ite11.next| Int)
(declare-var |call__PRODUCER_CONSUMMER_.ite2| Int)
(declare-var |call__PRODUCER_CONSUMMER_.ite2.next| Int)
(declare-var |call__PRODUCER_CONSUMMER_.ite3| Int)
(declare-var |call__PRODUCER_CONSUMMER_.ite3.next| Int)
(declare-var |call__PRODUCER_CONSUMMER_.ite4| Int)
(declare-var |call__PRODUCER_CONSUMMER_.ite4.next| Int)
(declare-var |call__PRODUCER_CONSUMMER_.ite5| Int)
(declare-var |call__PRODUCER_CONSUMMER_.ite5.next| Int)
(declare-var |call__PRODUCER_CONSUMMER_.ite6| Int)
(declare-var |call__PRODUCER_CONSUMMER_.ite6.next| Int)
(declare-var |call__PRODUCER_CONSUMMER_.ite7| Int)
(declare-var |call__PRODUCER_CONSUMMER_.ite7.next| Int)
(declare-var |call__PRODUCER_CONSUMMER_.ite8| Int)
(declare-var |call__PRODUCER_CONSUMMER_.ite8.next| Int)
(declare-var |call__PRODUCER_CONSUMMER_.ite9| Int)
(declare-var |call__PRODUCER_CONSUMMER_.ite9.next| Int)
(declare-var |call__PRODUCER_CONSUMMER_.o1| Int)
(declare-var |call__PRODUCER_CONSUMMER_.o1.next| Int)
(declare-var |call__PRODUCER_CONSUMMER_.o2| Int)
(declare-var |call__PRODUCER_CONSUMMER_.o2.next| Int)
(declare-var |call_excludes3.excludes| Bool)
(declare-var |call_excludes3.excludes.next| Bool)
(declare-var |env| Bool)
(declare-var |env.next| Bool)
(declare-var |i| Int)
(declare-var |i.next| Int)
(declare-var |o1| Int)
(declare-var |o1.next| Int)
(declare-var |o2| Int)
(declare-var |o2.next| Int)
(declare-var |param_a_init| Int)
(declare-var |param_etat1| Bool)
(declare-var |param_etat1.next| Bool)
(declare-var |param_etat2| Bool)
(declare-var |param_etat2.next| Bool)
(declare-var |param_etat3| Bool)
(declare-var |param_etat3.next| Bool)

(define-fun .init () Bool
(let ((.def_123 (= call__PRODUCER_CONSUMMER_.ite9 call__PRODUCER_CONSUMMER_.ite8)))
(let ((.def_44 (not param_etat2)))
(let ((.def_124 (or .def_44 .def_123)))
(let ((.def_119 (= call__PRODUCER_CONSUMMER_.ite2 call__PRODUCER_CONSUMMER_.ite)))
(let ((.def_53 (not param_etat1)))
(let ((.def_120 (or .def_53 .def_119)))
(let ((.def_125 (and .def_120 .def_124)))
(let ((.def_115 (not param_etat3)))
(let ((.def_114 (= call__PRODUCER_CONSUMMER_.ite11 call__PRODUCER_CONSUMMER_.ite10)))
(let ((.def_116 (or .def_114 .def_115)))
(let ((.def_126 (and .def_116 .def_125)))
(let ((.def_111 (= call__PRODUCER_CONSUMMER_.a call__PRODUCER_CONSUMMER_.flby)))
(let ((.def_127 (and .def_111 .def_126)))
(let ((.def_110 (= call__PRODUCER_CONSUMMER_.flby2 0)))
(let ((.def_128 (and .def_110 .def_127)))
(let ((.def_109 (= call__PRODUCER_CONSUMMER_.flby3 param_a_init)))
(let ((.def_129 (and .def_109 .def_128)))
(let ((.def_108 (= call__PRODUCER_CONSUMMER_.flby4 0)))
(let ((.def_130 (and .def_108 .def_129)))
(let ((.def_107 (= call__PRODUCER_CONSUMMER_.flby5 0)))
(let ((.def_131 (and .def_107 .def_130)))
(let ((.def_106 (= call_Sofar.flby call_excludes3.excludes)))
(let ((.def_132 (and .def_106 .def_131)))
(let ((.def_105 (= call_First.flby param_a_init)))
(let ((.def_133 (and .def_105 .def_132)))
(let ((.def_84 (not env)))
(let ((.def_80 (* (- 1) a)))
(let ((.def_81 (+ o1 .def_80)))
(let ((.def_82 (+ o2 .def_81)))
(let ((.def_83 (<= .def_82 0)))
(let ((.def_85 (or .def_83 .def_84)))
(let ((.def_87 (= .def_85 _OK_)))
(let ((.def_73 (= call__PRODUCER_CONSUMMER_.i i)))
(let ((.def_88 (and .def_73 .def_87)))
(let ((.def_71 (= call__PRODUCER_CONSUMMER_.b b)))
(let ((.def_89 (and .def_71 .def_88)))
(let ((.def_69 (= call__PRODUCER_CONSUMMER_.a a)))
(let ((.def_90 (and .def_69 .def_89)))
(let ((.def_67 (= call__PRODUCER_CONSUMMER_.o1 o1)))
(let ((.def_91 (and .def_67 .def_90)))
(let ((.def_65 (= call__PRODUCER_CONSUMMER_.o2 o2)))
(let ((.def_92 (and .def_65 .def_91)))
(let ((.def_59 (<= call_First.First 0)))
(let ((.def_60 (not .def_59)))
(let ((.def_61 (and call_Sofar.Sofar .def_60)))
(let ((.def_63 (= .def_61 env)))
(let ((.def_93 (and .def_63 .def_92)))
(let ((.def_55 (= call__PRODUCER_CONSUMMER_.ite6 call__PRODUCER_CONSUMMER_.ite7)))
(let ((.def_56 (or param_etat1 .def_55)))
(let ((.def_52 (= call__PRODUCER_CONSUMMER_.ite7 call__PRODUCER_CONSUMMER_.ite3)))
(let ((.def_54 (or .def_52 .def_53)))
(let ((.def_57 (and .def_54 .def_56)))
(let ((.def_94 (and .def_57 .def_93)))
(let ((.def_47 (= call__PRODUCER_CONSUMMER_.ite6 call__PRODUCER_CONSUMMER_.ite5)))
(let ((.def_48 (or param_etat2 .def_47)))
(let ((.def_43 (= call__PRODUCER_CONSUMMER_.ite6 call__PRODUCER_CONSUMMER_.ite4)))
(let ((.def_45 (or .def_43 .def_44)))
(let ((.def_49 (and .def_45 .def_48)))
(let ((.def_95 (and .def_49 .def_94)))
(let ((.def_40 (= call__PRODUCER_CONSUMMER_.flby call__PRODUCER_CONSUMMER_.i)))
(let ((.def_96 (and .def_40 .def_95)))
(let ((.def_37 (= call__PRODUCER_CONSUMMER_.flby2 call__PRODUCER_CONSUMMER_.b)))
(let ((.def_97 (and .def_37 .def_96)))
(let ((.def_34 (= call__PRODUCER_CONSUMMER_.a call__PRODUCER_CONSUMMER_.flby3)))
(let ((.def_98 (and .def_34 .def_97)))
(let ((.def_31 (= call__PRODUCER_CONSUMMER_.flby4 call__PRODUCER_CONSUMMER_.o1)))
(let ((.def_99 (and .def_31 .def_98)))
(let ((.def_28 (= call__PRODUCER_CONSUMMER_.flby5 call__PRODUCER_CONSUMMER_.o2)))
(let ((.def_100 (and .def_28 .def_99)))
(let ((.def_20 (and param_etat2 param_etat1)))
(let ((.def_19 (and param_etat3 param_etat1)))
(let ((.def_21 (or .def_19 .def_20)))
(let ((.def_17 (and param_etat2 param_etat3)))
(let ((.def_22 (or .def_17 .def_21)))
(let ((.def_23 (not .def_22)))
(let ((.def_25 (= .def_23 call_excludes3.excludes)))
(let ((.def_101 (and .def_25 .def_100)))
(let ((.def_14 (= call_Sofar.flby call_Sofar.Sofar)))
(let ((.def_102 (and .def_14 .def_101)))
(let ((.def_11 (= call_First.flby call_First.First)))
(let ((.def_103 (and .def_11 .def_102)))
(let ((.def_134 (and .def_103 .def_133)))
.def_134)))))))))))))))))))))))))))))))))))))))))))))))))))))))))))))))))))))))))))))))))))

(define-fun .trans () Bool
(let ((.def_310 (= call__PRODUCER_CONSUMMER_.o1 call__PRODUCER_CONSUMMER_.ite9.next)))
(let ((.def_311 (or param_etat2.next .def_310)))
(let ((.def_308 (= call__PRODUCER_CONSUMMER_.ite9.next call__PRODUCER_CONSUMMER_.ite8.next)))
(let ((.def_170 (not param_etat2.next)))
(let ((.def_309 (or .def_170 .def_308)))
(let ((.def_312 (and .def_309 .def_311)))
(let ((.def_305 (= call__PRODUCER_CONSUMMER_.i call__PRODUCER_CONSUMMER_.ite2.next)))
(let ((.def_306 (or param_etat1.next .def_305)))
(let ((.def_303 (= call__PRODUCER_CONSUMMER_.ite2.next call__PRODUCER_CONSUMMER_.ite.next)))
(let ((.def_179 (not param_etat1.next)))
(let ((.def_304 (or .def_179 .def_303)))
(let ((.def_307 (and .def_304 .def_306)))
(let ((.def_313 (and .def_307 .def_312)))
(let ((.def_300 (= call__PRODUCER_CONSUMMER_.o2 call__PRODUCER_CONSUMMER_.ite11.next)))
(let ((.def_301 (or param_etat3.next .def_300)))
(let ((.def_298 (= call__PRODUCER_CONSUMMER_.ite11.next call__PRODUCER_CONSUMMER_.ite10.next)))
(let ((.def_297 (not param_etat3.next)))
(let ((.def_299 (or .def_297 .def_298)))
(let ((.def_302 (and .def_299 .def_301)))
(let ((.def_314 (and .def_302 .def_313)))
(let ((.def_294 (= call__PRODUCER_CONSUMMER_.i call__PRODUCER_CONSUMMER_.ite.next)))
(let ((.def_295 (or call__PRODUCER_CONSUMMER_.garde1.next .def_294)))
(let ((.def_290 (* (- 1) call__PRODUCER_CONSUMMER_.ite.next)))
(let ((.def_291 (+ call__PRODUCER_CONSUMMER_.i .def_290)))
(let ((.def_292 (= .def_291 1)))
(let ((.def_280 (not call__PRODUCER_CONSUMMER_.garde1.next)))
(let ((.def_293 (or .def_280 .def_292)))
(let ((.def_296 (and .def_293 .def_295)))
(let ((.def_315 (and .def_296 .def_314)))
(let ((.def_282 (= call__PRODUCER_CONSUMMER_.b call__PRODUCER_CONSUMMER_.ite3.next)))
(let ((.def_283 (or call__PRODUCER_CONSUMMER_.garde1.next .def_282)))
(let ((.def_277 (* (- 1) call__PRODUCER_CONSUMMER_.ite3.next)))
(let ((.def_278 (+ call__PRODUCER_CONSUMMER_.b .def_277)))
(let ((.def_279 (= .def_278 (- 1))))
(let ((.def_281 (or .def_279 .def_280)))
(let ((.def_284 (and .def_281 .def_283)))
(let ((.def_273 (* (- 1) call__PRODUCER_CONSUMMER_.ite4.next)))
(let ((.def_274 (+ call__PRODUCER_CONSUMMER_.b .def_273)))
(let ((.def_275 (= .def_274 1)))
(let ((.def_260 (not call__PRODUCER_CONSUMMER_.garde2.next)))
(let ((.def_276 (or .def_260 .def_275)))
(let ((.def_285 (and .def_276 .def_284)))
(let ((.def_271 (= call__PRODUCER_CONSUMMER_.b call__PRODUCER_CONSUMMER_.ite4.next)))
(let ((.def_272 (or call__PRODUCER_CONSUMMER_.garde2.next .def_271)))
(let ((.def_286 (and .def_272 .def_285)))
(let ((.def_267 (* (- 1) call__PRODUCER_CONSUMMER_.ite5.next)))
(let ((.def_268 (+ call__PRODUCER_CONSUMMER_.b .def_267)))
(let ((.def_269 (= .def_268 1)))
(let ((.def_251 (not call__PRODUCER_CONSUMMER_.garde3.next)))
(let ((.def_270 (or .def_251 .def_269)))
(let ((.def_287 (and .def_270 .def_286)))
(let ((.def_265 (= call__PRODUCER_CONSUMMER_.b call__PRODUCER_CONSUMMER_.ite5.next)))
(let ((.def_266 (or call__PRODUCER_CONSUMMER_.garde3.next .def_265)))
(let ((.def_288 (and .def_266 .def_287)))
(let ((.def_316 (and .def_288 .def_315)))
(let ((.def_262 (= call__PRODUCER_CONSUMMER_.o1 call__PRODUCER_CONSUMMER_.ite8.next)))
(let ((.def_263 (or call__PRODUCER_CONSUMMER_.garde2.next .def_262)))
(let ((.def_257 (* (- 1) call__PRODUCER_CONSUMMER_.ite8.next)))
(let ((.def_258 (+ call__PRODUCER_CONSUMMER_.o1 .def_257)))
(let ((.def_259 (= .def_258 (- 1))))
(let ((.def_261 (or .def_259 .def_260)))
(let ((.def_264 (and .def_261 .def_263)))
(let ((.def_317 (and .def_264 .def_316)))
(let ((.def_253 (= call__PRODUCER_CONSUMMER_.o2 call__PRODUCER_CONSUMMER_.ite10.next)))
(let ((.def_254 (or call__PRODUCER_CONSUMMER_.garde3.next .def_253)))
(let ((.def_248 (* (- 1) call__PRODUCER_CONSUMMER_.ite10.next)))
(let ((.def_249 (+ call__PRODUCER_CONSUMMER_.o2 .def_248)))
(let ((.def_250 (= .def_249 (- 1))))
(let ((.def_252 (or .def_250 .def_251)))
(let ((.def_255 (and .def_252 .def_254)))
(let ((.def_318 (and .def_255 .def_317)))
(let ((.def_244 (<= 1 call__PRODUCER_CONSUMMER_.i)))
(let ((.def_246 (= .def_244 call__PRODUCER_CONSUMMER_.garde1.next)))
(let ((.def_319 (and .def_246 .def_318)))
(let ((.def_239 (<= 1 call__PRODUCER_CONSUMMER_.b)))
(let ((.def_243 (= .def_239 call__PRODUCER_CONSUMMER_.garde2.next)))
(let ((.def_320 (and .def_243 .def_319)))
(let ((.def_241 (= .def_239 call__PRODUCER_CONSUMMER_.garde3.next)))
(let ((.def_321 (and .def_241 .def_320)))
(let ((.def_238 (= call__PRODUCER_CONSUMMER_.flby.next call__PRODUCER_CONSUMMER_.ite2.next)))
(let ((.def_322 (and .def_238 .def_321)))
(let ((.def_236 (= call__PRODUCER_CONSUMMER_.flby2.next call__PRODUCER_CONSUMMER_.ite7.next)))
(let ((.def_323 (and .def_236 .def_322)))
(let ((.def_235 (= call__PRODUCER_CONSUMMER_.a call__PRODUCER_CONSUMMER_.flby3.next)))
(let ((.def_324 (and .def_235 .def_323)))
(let ((.def_234 (= call__PRODUCER_CONSUMMER_.flby4.next call__PRODUCER_CONSUMMER_.ite9.next)))
(let ((.def_325 (and .def_234 .def_324)))
(let ((.def_232 (= call__PRODUCER_CONSUMMER_.flby5.next call__PRODUCER_CONSUMMER_.ite11.next)))
(let ((.def_326 (and .def_232 .def_325)))
(let ((.def_229 (and call_Sofar.Sofar call_excludes3.excludes.next)))
(let ((.def_230 (= call_Sofar.flby.next .def_229)))
(let ((.def_327 (and .def_230 .def_326)))
(let ((.def_228 (= call_First.First call_First.flby.next)))
(let ((.def_328 (and .def_228 .def_327)))
(let ((.def_207 (not env.next)))
(let ((.def_203 (* (- 1) a.next)))
(let ((.def_204 (+ o1.next .def_203)))
(let ((.def_205 (+ o2.next .def_204)))
(let ((.def_206 (<= .def_205 0)))
(let ((.def_208 (or .def_206 .def_207)))
(let ((.def_210 (= .def_208 _OK_.next)))
(let ((.def_198 (= call__PRODUCER_CONSUMMER_.i.next i.next)))
(let ((.def_211 (and .def_198 .def_210)))
(let ((.def_196 (= call__PRODUCER_CONSUMMER_.b.next b.next)))
(let ((.def_212 (and .def_196 .def_211)))
(let ((.def_194 (= call__PRODUCER_CONSUMMER_.a.next a.next)))
(let ((.def_213 (and .def_194 .def_212)))
(let ((.def_192 (= call__PRODUCER_CONSUMMER_.o1.next o1.next)))
(let ((.def_214 (and .def_192 .def_213)))
(let ((.def_190 (= call__PRODUCER_CONSUMMER_.o2.next o2.next)))
(let ((.def_215 (and .def_190 .def_214)))
(let ((.def_184 (<= call_First.First.next 0)))
(let ((.def_185 (not .def_184)))
(let ((.def_186 (and call_Sofar.Sofar.next .def_185)))
(let ((.def_188 (= .def_186 env.next)))
(let ((.def_216 (and .def_188 .def_215)))
(let ((.def_181 (= call__PRODUCER_CONSUMMER_.ite6.next call__PRODUCER_CONSUMMER_.ite7.next)))
(let ((.def_182 (or param_etat1.next .def_181)))
(let ((.def_178 (= call__PRODUCER_CONSUMMER_.ite3.next call__PRODUCER_CONSUMMER_.ite7.next)))
(let ((.def_180 (or .def_178 .def_179)))
(let ((.def_183 (and .def_180 .def_182)))
(let ((.def_217 (and .def_183 .def_216)))
(let ((.def_173 (= call__PRODUCER_CONSUMMER_.ite6.next call__PRODUCER_CONSUMMER_.ite5.next)))
(let ((.def_174 (or param_etat2.next .def_173)))
(let ((.def_169 (= call__PRODUCER_CONSUMMER_.ite4.next call__PRODUCER_CONSUMMER_.ite6.next)))
(let ((.def_171 (or .def_169 .def_170)))
(let ((.def_175 (and .def_171 .def_174)))
(let ((.def_218 (and .def_175 .def_217)))
(let ((.def_166 (= call__PRODUCER_CONSUMMER_.flby.next call__PRODUCER_CONSUMMER_.i.next)))
(let ((.def_219 (and .def_166 .def_218)))
(let ((.def_163 (= call__PRODUCER_CONSUMMER_.flby2.next call__PRODUCER_CONSUMMER_.b.next)))
(let ((.def_220 (and .def_163 .def_219)))
(let ((.def_160 (= call__PRODUCER_CONSUMMER_.flby3.next call__PRODUCER_CONSUMMER_.a.next)))
(let ((.def_221 (and .def_160 .def_220)))
(let ((.def_157 (= call__PRODUCER_CONSUMMER_.flby4.next call__PRODUCER_CONSUMMER_.o1.next)))
(let ((.def_222 (and .def_157 .def_221)))
(let ((.def_154 (= call__PRODUCER_CONSUMMER_.flby5.next call__PRODUCER_CONSUMMER_.o2.next)))
(let ((.def_223 (and .def_154 .def_222)))
(let ((.def_146 (and param_etat2.next param_etat1.next)))
(let ((.def_145 (and param_etat3.next param_etat1.next)))
(let ((.def_147 (or .def_145 .def_146)))
(let ((.def_143 (and param_etat2.next param_etat3.next)))
(let ((.def_148 (or .def_143 .def_147)))
(let ((.def_149 (not .def_148)))
(let ((.def_151 (= .def_149 call_excludes3.excludes.next)))
(let ((.def_224 (and .def_151 .def_223)))
(let ((.def_140 (= call_Sofar.flby.next call_Sofar.Sofar.next)))
(let ((.def_225 (and .def_140 .def_224)))
(let ((.def_137 (= call_First.flby.next call_First.First.next)))
(let ((.def_226 (and .def_137 .def_225)))
(let ((.def_84 (not env)))
(let ((.def_80 (* (- 1) a)))
(let ((.def_81 (+ o1 .def_80)))
(let ((.def_82 (+ o2 .def_81)))
(let ((.def_83 (<= .def_82 0)))
(let ((.def_85 (or .def_83 .def_84)))
(let ((.def_87 (= .def_85 _OK_)))
(let ((.def_73 (= call__PRODUCER_CONSUMMER_.i i)))
(let ((.def_88 (and .def_73 .def_87)))
(let ((.def_71 (= call__PRODUCER_CONSUMMER_.b b)))
(let ((.def_89 (and .def_71 .def_88)))
(let ((.def_69 (= call__PRODUCER_CONSUMMER_.a a)))
(let ((.def_90 (and .def_69 .def_89)))
(let ((.def_67 (= call__PRODUCER_CONSUMMER_.o1 o1)))
(let ((.def_91 (and .def_67 .def_90)))
(let ((.def_65 (= call__PRODUCER_CONSUMMER_.o2 o2)))
(let ((.def_92 (and .def_65 .def_91)))
(let ((.def_59 (<= call_First.First 0)))
(let ((.def_60 (not .def_59)))
(let ((.def_61 (and call_Sofar.Sofar .def_60)))
(let ((.def_63 (= .def_61 env)))
(let ((.def_93 (and .def_63 .def_92)))
(let ((.def_55 (= call__PRODUCER_CONSUMMER_.ite6 call__PRODUCER_CONSUMMER_.ite7)))
(let ((.def_56 (or param_etat1 .def_55)))
(let ((.def_53 (not param_etat1)))
(let ((.def_52 (= call__PRODUCER_CONSUMMER_.ite7 call__PRODUCER_CONSUMMER_.ite3)))
(let ((.def_54 (or .def_52 .def_53)))
(let ((.def_57 (and .def_54 .def_56)))
(let ((.def_94 (and .def_57 .def_93)))
(let ((.def_47 (= call__PRODUCER_CONSUMMER_.ite6 call__PRODUCER_CONSUMMER_.ite5)))
(let ((.def_48 (or param_etat2 .def_47)))
(let ((.def_44 (not param_etat2)))
(let ((.def_43 (= call__PRODUCER_CONSUMMER_.ite6 call__PRODUCER_CONSUMMER_.ite4)))
(let ((.def_45 (or .def_43 .def_44)))
(let ((.def_49 (and .def_45 .def_48)))
(let ((.def_95 (and .def_49 .def_94)))
(let ((.def_40 (= call__PRODUCER_CONSUMMER_.flby call__PRODUCER_CONSUMMER_.i)))
(let ((.def_96 (and .def_40 .def_95)))
(let ((.def_37 (= call__PRODUCER_CONSUMMER_.flby2 call__PRODUCER_CONSUMMER_.b)))
(let ((.def_97 (and .def_37 .def_96)))
(let ((.def_34 (= call__PRODUCER_CONSUMMER_.a call__PRODUCER_CONSUMMER_.flby3)))
(let ((.def_98 (and .def_34 .def_97)))
(let ((.def_31 (= call__PRODUCER_CONSUMMER_.flby4 call__PRODUCER_CONSUMMER_.o1)))
(let ((.def_99 (and .def_31 .def_98)))
(let ((.def_28 (= call__PRODUCER_CONSUMMER_.flby5 call__PRODUCER_CONSUMMER_.o2)))
(let ((.def_100 (and .def_28 .def_99)))
(let ((.def_20 (and param_etat2 param_etat1)))
(let ((.def_19 (and param_etat3 param_etat1)))
(let ((.def_21 (or .def_19 .def_20)))
(let ((.def_17 (and param_etat2 param_etat3)))
(let ((.def_22 (or .def_17 .def_21)))
(let ((.def_23 (not .def_22)))
(let ((.def_25 (= .def_23 call_excludes3.excludes)))
(let ((.def_101 (and .def_25 .def_100)))
(let ((.def_14 (= call_Sofar.flby call_Sofar.Sofar)))
(let ((.def_102 (and .def_14 .def_101)))
(let ((.def_11 (= call_First.flby call_First.First)))
(let ((.def_103 (and .def_11 .def_102)))
(let ((.def_227 (and .def_103 .def_226)))
(let ((.def_329 (and .def_227 .def_328)))
.def_329)))))))))))))))))))))))))))))))))))))))))))))))))))))))))))))))))))))))))))))))))))))))))))))))))))))))))))))))))))))))))))))))))))))))))))))))))))))))))))))))))))))))))))))))))))))))))))))))))))))))))))))))))))

(define-fun .property () Bool
_OK_)

(rule (=> .init (state |_OK_| |a| |b| |call_First.First| |call_First.flby| |call_Sofar.Sofar| |call_Sofar.flby| |call__PRODUCER_CONSUMMER_.a| |call__PRODUCER_CONSUMMER_.b| |call__PRODUCER_CONSUMMER_.flby| |call__PRODUCER_CONSUMMER_.flby2| |call__PRODUCER_CONSUMMER_.flby3| |call__PRODUCER_CONSUMMER_.flby4| |call__PRODUCER_CONSUMMER_.flby5| |call__PRODUCER_CONSUMMER_.garde1| |call__PRODUCER_CONSUMMER_.garde2| |call__PRODUCER_CONSUMMER_.garde3| |call__PRODUCER_CONSUMMER_.i| |call__PRODUCER_CONSUMMER_.ite| |call__PRODUCER_CONSUMMER_.ite10| |call__PRODUCER_CONSUMMER_.ite11| |call__PRODUCER_CONSUMMER_.ite2| |call__PRODUCER_CONSUMMER_.ite3| |call__PRODUCER_CONSUMMER_.ite4| |call__PRODUCER_CONSUMMER_.ite5| |call__PRODUCER_CONSUMMER_.ite6| |call__PRODUCER_CONSUMMER_.ite7| |call__PRODUCER_CONSUMMER_.ite8| |call__PRODUCER_CONSUMMER_.ite9| |call__PRODUCER_CONSUMMER_.o1| |call__PRODUCER_CONSUMMER_.o2| |call_excludes3.excludes| |env| |i| |o1| |o2| |param_etat1| |param_etat2| |param_etat3|)))
(rule (=> (and (state |_OK_| |a| |b| |call_First.First| |call_First.flby| |call_Sofar.Sofar| |call_Sofar.flby| |call__PRODUCER_CONSUMMER_.a| |call__PRODUCER_CONSUMMER_.b| |call__PRODUCER_CONSUMMER_.flby| |call__PRODUCER_CONSUMMER_.flby2| |call__PRODUCER_CONSUMMER_.flby3| |call__PRODUCER_CONSUMMER_.flby4| |call__PRODUCER_CONSUMMER_.flby5| |call__PRODUCER_CONSUMMER_.garde1| |call__PRODUCER_CONSUMMER_.garde2| |call__PRODUCER_CONSUMMER_.garde3| |call__PRODUCER_CONSUMMER_.i| |call__PRODUCER_CONSUMMER_.ite| |call__PRODUCER_CONSUMMER_.ite10| |call__PRODUCER_CONSUMMER_.ite11| |call__PRODUCER_CONSUMMER_.ite2| |call__PRODUCER_CONSUMMER_.ite3| |call__PRODUCER_CONSUMMER_.ite4| |call__PRODUCER_CONSUMMER_.ite5| |call__PRODUCER_CONSUMMER_.ite6| |call__PRODUCER_CONSUMMER_.ite7| |call__PRODUCER_CONSUMMER_.ite8| |call__PRODUCER_CONSUMMER_.ite9| |call__PRODUCER_CONSUMMER_.o1| |call__PRODUCER_CONSUMMER_.o2| |call_excludes3.excludes| |env| |i| |o1| |o2| |param_etat1| |param_etat2| |param_etat3|) .trans) (state |_OK_.next| |a.next| |b.next| |call_First.First.next| |call_First.flby.next| |call_Sofar.Sofar.next| |call_Sofar.flby.next| |call__PRODUCER_CONSUMMER_.a.next| |call__PRODUCER_CONSUMMER_.b.next| |call__PRODUCER_CONSUMMER_.flby.next| |call__PRODUCER_CONSUMMER_.flby2.next| |call__PRODUCER_CONSUMMER_.flby3.next| |call__PRODUCER_CONSUMMER_.flby4.next| |call__PRODUCER_CONSUMMER_.flby5.next| |call__PRODUCER_CONSUMMER_.garde1.next| |call__PRODUCER_CONSUMMER_.garde2.next| |call__PRODUCER_CONSUMMER_.garde3.next| |call__PRODUCER_CONSUMMER_.i.next| |call__PRODUCER_CONSUMMER_.ite.next| |call__PRODUCER_CONSUMMER_.ite10.next| |call__PRODUCER_CONSUMMER_.ite11.next| |call__PRODUCER_CONSUMMER_.ite2.next| |call__PRODUCER_CONSUMMER_.ite3.next| |call__PRODUCER_CONSUMMER_.ite4.next| |call__PRODUCER_CONSUMMER_.ite5.next| |call__PRODUCER_CONSUMMER_.ite6.next| |call__PRODUCER_CONSUMMER_.ite7.next| |call__PRODUCER_CONSUMMER_.ite8.next| |call__PRODUCER_CONSUMMER_.ite9.next| |call__PRODUCER_CONSUMMER_.o1.next| |call__PRODUCER_CONSUMMER_.o2.next| |call_excludes3.excludes.next| |env.next| |i.next| |o1.next| |o2.next| |param_etat1.next| |param_etat2.next| |param_etat3.next|)))
(query (and (state |_OK_| |a| |b| |call_First.First| |call_First.flby| |call_Sofar.Sofar| |call_Sofar.flby| |call__PRODUCER_CONSUMMER_.a| |call__PRODUCER_CONSUMMER_.b| |call__PRODUCER_CONSUMMER_.flby| |call__PRODUCER_CONSUMMER_.flby2| |call__PRODUCER_CONSUMMER_.flby3| |call__PRODUCER_CONSUMMER_.flby4| |call__PRODUCER_CONSUMMER_.flby5| |call__PRODUCER_CONSUMMER_.garde1| |call__PRODUCER_CONSUMMER_.garde2| |call__PRODUCER_CONSUMMER_.garde3| |call__PRODUCER_CONSUMMER_.i| |call__PRODUCER_CONSUMMER_.ite| |call__PRODUCER_CONSUMMER_.ite10| |call__PRODUCER_CONSUMMER_.ite11| |call__PRODUCER_CONSUMMER_.ite2| |call__PRODUCER_CONSUMMER_.ite3| |call__PRODUCER_CONSUMMER_.ite4| |call__PRODUCER_CONSUMMER_.ite5| |call__PRODUCER_CONSUMMER_.ite6| |call__PRODUCER_CONSUMMER_.ite7| |call__PRODUCER_CONSUMMER_.ite8| |call__PRODUCER_CONSUMMER_.ite9| |call__PRODUCER_CONSUMMER_.o1| |call__PRODUCER_CONSUMMER_.o2| |call_excludes3.excludes| |env| |i| |o1| |o2| |param_etat1| |param_etat2| |param_etat3|) (not .property)))
